dimacs_exports/research_5vars_15clauses.cnf
c DIMACS CNF format
c Generated from: research_5vars_15clauses.md
c Batch export from 
c Generated on: 2025-07-15T10:21:56.961
c
p cnf 5 15
-2 -1 2 0
-2 -2 5 0
-1 5 -5 0
4 -4 -5 0
-3 -3 3 0
3 -3 -1 0
5 4 -3 0
4 5 -1 0
-1 4 4 0
4 4 -1 0
-4 -1 -3 0
-3 4 2 0
4 -2 -4 0
4 -3 1 0
5 4 -4 0
