research/research_5vars_15clauses.txt
7 8 3
7 10 1
8 9 1
4 7 1
2 8 1
2 10 1
9 10 1
2 6 2
3 4 1
2 7 5
6 9 1
4 9 2
8 10 1
2 5 1
1 6 1
7 9 3
1 7 1
3 6 1
2 9 2
6 8 1
3 7 1
5 6 3
4 8 1
2 3 1
2 4 1
6 7 3